<number of tasks>
50

<cycle time>
1000

<order strength>
0.896


<task times>
1 317
2 50
3 425
4 70
5 91
6 266
7 32
8 58
9 83
10 145
11 101
12 443
13 147
14 238
15 23
16 93
17 36
18 552
19 229
20 315
21 49
22 192
23 68
24 52
25 87
26 26
27 123
28 305
29 131
30 343
31 112
32 289
33 282
34 278
35 31
36 339
37 113
38 550
39 286
40 78
41 298
42 255
43 151
44 106
45 192
46 30
47 225
48 148
49 175
50 466

<precedence relations>
1,3
2,3
3,4
3,5
3,6
4,7
4,8
4,9
4,10
5,7
5,8
5,9
5,10
6,7
6,8
6,9
6,10
7,11
7,12
7,13
8,11
8,12
8,13
9,11
9,12
9,13
10,11
10,12
10,13
11,14
11,15
11,16
12,14
12,15
12,16
13,14
13,15
13,16
14,17
14,18
14,19
14,20
15,17
15,18
15,19
15,20
16,17
16,18
16,19
16,20
17,21
17,22
18,21
18,22
19,21
19,22
20,21
20,22
21,23
21,24
21,25
21,26
22,23
22,24
22,25
22,26
23,27
23,28
23,29
23,30
24,27
24,28
24,29
24,30
25,27
25,28
25,29
25,30
26,27
26,28
26,29
26,30
27,33
28,38
29,31
29,32
30,46
30,49
30,50
31,33
31,34
31,35
32,33
32,34
32,35
33,36
33,37
33,39
34,36
34,37
35,38
36,42
37,41
37,42
38,40
38,41
38,42
39,41
41,48
42,43
43,44
43,45
43,46
44,47
45,48
47,49
48,50

<end>
